c This is a CNF SAT formula in the DIMACS CNF format,
c produced with the bc2cnf translator by Tommi Junttila;
c see http://users.ics.aalto.fi/tjunttil/circuits/index.html
c phi_Gamma <-> 1
c phi_T_transitions <-> 1
c phi_T_transitions_consistency <-> 1
c phi_T <-> 1
c phi_sim_leaves <-> 1
c phi_sim_transition <-> 1
c phi_sim <-> 1
c FORMULA <-> 1
c pi_0_27 <-> 2
c pi_0_22 <-> 15
c pi_0_26 <-> 15
c pi_0_25 <-> 21
c pi_0_24 <-> 23
c pi_0_19 <-> 25
c pi_0_23 <-> 25
c pi_0_21 <-> 27
c pi_0_20 <-> 28
c pi_0_13 <-> 41
c pi_0_18 <-> 41
c pi_0_17 <-> 50
c pi_0_16 <-> 57
c pi_0_1 <-> 59
c pi_0_15 <-> 59
c pi_0_11 <-> 60
c pi_0_14 <-> 60
c pi_0_12 <-> 64
c pi_0_10 <-> 65
c pi_0_9 <-> 66
c pi_0_8 <-> 69
c pi_0_0 <-> 73
c pi_0_7 <-> 73
c pi_0_6 <-> 77
c pi_0_5 <-> 78
c pi_0_4 <-> 80
c pi_0_3 <-> 81
c pi_0_2 <-> 84
c alp_approved_1_0 <-> 86
c alp_approved_1_1 <-> 86
c alp_approved_1_2 <-> 86
c alp_approved_1_3 <-> 86
c alp_approved_1_4 <-> 86
c alp_approved_0_5 <-> 86
c alp_approved_1_6 <-> 86
c alp_approved_1_7 <-> 86
c alp_approved_0_8 <-> 86
c alp_approved_1_9 <-> 86
c alp_approved_1_10 <-> 86
c alp_approved_0_11 <-> 86
c alp_approved_1_12 <-> 86
c alp_approved_0_13 <-> 86
c alp_approved_0_14 <-> 86
c alp_approved_1_15 <-> 86
c alp_approved_1_16 <-> 86
c alp_approved_1_17 <-> 86
c alp_approved_0_18 <-> 86
c alp_approved_1_19 <-> 86
c alp_approved_0_20 <-> 86
c alp_approved_1_21 <-> 86
c alp_approved_1_22 <-> 86
c alp_approved_1_23 <-> 86
c alp_approved_1_24 <-> 86
c alp_approved_1_25 <-> 86
c alp_approved_1_26 <-> 86
c alp_approved_1_27 <-> 86
c alp_approved_1_5 <-> 87
c alp_approved_1_8 <-> 87
c alp_approved_1_11 <-> 87
c alp_approved_1_13 <-> 87
c alp_approved_1_14 <-> 87
c alp_approved_1_18 <-> 87
c alp_approved_1_20 <-> 87
c approved_P100 <-> 87
c alp_approved_0_0 <-> 88
c alp_approved_0_1 <-> 88
c alp_approved_0_2 <-> 88
c alp_approved_0_3 <-> 88
c alp_approved_0_4 <-> 88
c alp_approved_0_6 <-> 88
c alp_approved_0_7 <-> 88
c alp_approved_0_9 <-> 88
c alp_approved_0_10 <-> 88
c alp_approved_0_12 <-> 88
c alp_approved_0_15 <-> 88
c alp_approved_0_16 <-> 88
c alp_approved_0_17 <-> 88
c alp_approved_0_19 <-> 88
c alp_approved_0_21 <-> 88
c alp_approved_0_22 <-> 88
c alp_approved_0_23 <-> 88
c alp_approved_0_24 <-> 88
c alp_approved_0_25 <-> 88
c alp_approved_0_26 <-> 88
c alp_approved_0_27 <-> 88
c approved_P0 <-> 88
c tau_0_3_approved_1 <-> 115
c tau_0_3_approved_0 <-> 116
c tau_0_2_approved_1 <-> 117
c tau_0_2_approved_0 <-> 118
c tau_0_1_approved_1 <-> 119
c tau_0_1_approved_0 <-> 120
c tau_0_0_approved_1 <-> 121
c tau_0_0_approved_0 <-> 122
c phi_T_feature_det <-> 123
c lam_0_credit_score <-> 136
c lam_0_dependents <-> 138
c lam_0_monthly_income <-> 140
c lam_0_age <-> 141
p wcnf 141 435 29  
29 1 0
29 2 -3 0
29 2 -6 0
29 -2 6 3 0
1 2 0
29 -3 4 0
29 -3 136 0
29 3 -136 -4 0
29 -4 -117 0
29 -4 5 0
29 4 -5 117 0
29 5 118 0
29 5 -88 0
29 -5 88 -118 0
29 6 -7 0
29 6 -8 0
29 -6 8 7 0
29 -7 13 0
29 -7 138 0
29 7 -138 -13 0
29 8 -9 0
29 8 -12 0
29 -8 12 9 0
29 -9 10 0
29 -9 140 0
29 9 -140 -10 0
29 -10 -119 0
29 -10 11 0
29 10 -11 119 0
29 11 120 0
29 11 -88 0
29 -11 88 -120 0
29 -12 13 0
29 -12 141 0
29 12 -141 -13 0
29 -13 -121 0
29 -13 14 0
29 13 -14 121 0
29 14 122 0
29 14 -88 0
29 -14 88 -122 0
29 15 -16 0
29 15 -17 0
29 -15 17 16 0
1 15 0
29 -16 13 0
29 -16 136 0
29 16 -136 -13 0
29 17 -18 0
29 17 -19 0
29 -17 19 18 0
29 -18 10 0
29 -18 138 0
29 18 -138 -10 0
29 19 -9 0
29 19 -20 0
29 -19 20 9 0
29 -20 10 0
29 -20 141 0
29 20 -141 -10 0
29 21 -16 0
29 21 -22 0
29 -21 22 16 0
1 21 0
29 22 -7 0
29 22 -19 0
29 -22 19 7 0
29 23 -22 0
29 23 -24 0
29 -23 24 22 0
1 23 0
29 -24 10 0
29 -24 136 0
29 24 -136 -10 0
29 25 -3 0
29 25 -26 0
29 -25 26 3 0
1 25 0
29 26 -8 0
29 26 -18 0
29 -26 18 8 0
29 27 -6 0
29 27 -24 0
29 -27 24 6 0
1 27 0
29 28 -29 0
29 28 -32 0
29 -28 32 29 0
1 28 0
29 -29 30 0
29 -29 136 0
29 29 -136 -30 0
29 -30 -120 0
29 -30 31 0
29 30 -31 120 0
29 31 119 0
29 31 -87 0
29 -31 87 -119 0
29 32 -33 0
29 32 -34 0
29 -32 34 33 0
29 -33 36 0
29 -33 138 0
29 33 -138 -36 0
29 34 -35 0
29 34 -38 0
29 -34 38 35 0
29 -35 36 0
29 -35 140 0
29 35 -140 -36 0
29 -36 -122 0
29 -36 37 0
29 36 -37 122 0
29 37 121 0
29 37 -87 0
29 -37 87 -121 0
29 -38 39 0
29 -38 141 0
29 38 -141 -39 0
29 -39 40 0
29 -39 -116 0
29 39 116 -40 0
29 40 115 0
29 40 -87 0
29 -40 87 -115 0
29 41 -42 0
29 41 -43 0
29 -41 43 42 0
1 41 0
29 -42 48 0
29 -42 136 0
29 42 -136 -48 0
29 43 -44 0
29 43 -45 0
29 -43 45 44 0
29 -44 30 0
29 -44 138 0
29 44 -138 -30 0
29 45 -46 0
29 45 -47 0
29 -45 47 46 0
29 -46 30 0
29 -46 140 0
29 46 -140 -30 0
29 -47 48 0
29 -47 141 0
29 47 -141 -48 0
29 -48 -118 0
29 -48 49 0
29 48 -49 118 0
29 49 117 0
29 49 -87 0
29 -49 87 -117 0
29 50 -24 0
29 50 -51 0
29 -50 51 24 0
1 50 0
29 51 -18 0
29 51 -52 0
29 -51 52 18 0
29 52 -53 0
29 52 -54 0
29 -52 54 53 0
29 -53 13 0
29 -53 140 0
29 53 -140 -13 0
29 -54 55 0
29 -54 141 0
29 54 -141 -55 0
29 -55 -115 0
29 -55 56 0
29 55 -56 115 0
29 56 116 0
29 56 -88 0
29 -56 88 -116 0
29 57 -24 0
29 57 -58 0
29 -57 58 24 0
1 57 0
29 58 -7 0
29 58 -52 0
29 -58 52 7 0
29 59 -3 0
29 59 -58 0
29 -59 58 3 0
1 59 0
29 60 -29 0
29 60 -61 0
29 -60 61 29 0
1 60 0
29 61 -33 0
29 61 -62 0
29 -61 62 33 0
29 62 -46 0
29 62 -63 0
29 -62 63 46 0
29 -63 30 0
29 -63 141 0
29 63 -141 -30 0
29 64 -16 0
29 64 -51 0
29 -64 51 16 0
1 64 0
29 65 -3 0
29 65 -51 0
29 -65 51 3 0
1 65 0
29 66 -3 0
29 66 -67 0
29 -66 67 3 0
1 66 0
29 67 -18 0
29 67 -68 0
29 -67 68 18 0
29 68 -12 0
29 68 -53 0
29 -68 53 12 0
29 69 -70 0
29 69 -71 0
29 -69 71 70 0
1 69 0
29 -70 36 0
29 -70 136 0
29 70 -136 -36 0
29 71 -44 0
29 71 -72 0
29 -71 72 44 0
29 72 -38 0
29 72 -46 0
29 -72 46 38 0
29 73 -16 0
29 73 -74 0
29 -73 74 16 0
1 73 0
29 74 -18 0
29 74 -75 0
29 -74 75 18 0
29 75 -53 0
29 75 -76 0
29 -75 76 53 0
29 -76 4 0
29 -76 141 0
29 76 -141 -4 0
29 77 -16 0
29 77 -26 0
29 -77 26 16 0
1 77 0
29 78 -29 0
29 78 -79 0
29 -78 79 29 0
1 78 0
29 79 -33 0
29 79 -72 0
29 -79 72 33 0
29 80 -24 0
29 80 -67 0
29 -80 67 24 0
1 80 0
29 81 -24 0
29 81 -82 0
29 -81 82 24 0
1 81 0
29 82 -7 0
29 82 -83 0
29 -82 83 7 0
29 83 -20 0
29 83 -53 0
29 -83 53 20 0
29 84 -3 0
29 84 -85 0
29 -84 85 3 0
1 84 0
29 85 -18 0
29 85 -83 0
29 -85 83 18 0
29 -86 0
29 89 136 0
29 89 -90 0
29 -89 90 -136 0
29 89 0
29 -90 -115 0
29 -90 -116 0
29 90 116 115 0
29 91 138 0
29 91 -92 0
29 -91 92 -138 0
29 91 0
29 -92 -115 0
29 -92 93 0
29 92 -93 115 0
29 -93 -116 0
29 -93 94 0
29 93 -94 116 0
29 -94 -117 0
29 -94 -118 0
29 94 118 117 0
29 95 -92 0
29 95 140 0
29 -95 -140 92 0
29 95 0
29 96 136 0
29 96 -97 0
29 -96 97 -136 0
29 96 0
29 -97 98 0
29 -97 101 0
29 97 -101 -98 0
29 98 -99 0
29 98 -100 0
29 -98 100 99 0
29 -99 -118 0
29 -99 117 0
29 99 -117 118 0
29 -100 -117 0
29 -100 118 0
29 100 -118 117 0
29 -101 102 0
29 -101 105 0
29 101 -105 -102 0
29 102 -103 0
29 102 -104 0
29 -102 104 103 0
29 -103 -120 0
29 -103 119 0
29 103 -119 120 0
29 -104 -119 0
29 -104 120 0
29 104 -120 119 0
29 105 -106 0
29 105 -107 0
29 -105 107 106 0
29 -106 -122 0
29 -106 121 0
29 106 -121 122 0
29 -107 -121 0
29 -107 122 0
29 107 -122 121 0
29 108 138 0
29 108 -101 0
29 -108 101 -138 0
29 108 0
29 109 140 0
29 109 -101 0
29 -109 101 -140 0
29 109 0
29 110 141 0
29 110 -111 0
29 -110 111 -141 0
29 110 0
29 -111 97 0
29 -111 112 0
29 111 -112 -97 0
29 112 -113 0
29 112 -114 0
29 -112 114 113 0
29 -113 -116 0
29 -113 115 0
29 113 -115 116 0
29 -114 -115 0
29 -114 116 0
29 114 -116 115 0
29 123 -124 0
29 123 -127 0
29 -123 127 124 0
29 123 0
29 -124 -138 0
29 -124 125 0
29 124 -125 138 0
29 -125 -140 0
29 -125 126 0
29 125 -126 140 0
29 -126 -141 0
29 -126 136 0
29 126 -136 141 0
29 127 -128 0
29 127 -131 0
29 -127 131 128 0
29 -128 -136 0
29 -128 129 0
29 128 -129 136 0
29 -129 -140 0
29 -129 130 0
29 129 -130 140 0
29 -130 -141 0
29 -130 138 0
29 130 -138 141 0
29 131 -132 0
29 131 -135 0
29 -131 135 132 0
29 -132 -136 0
29 -132 133 0
29 132 -133 136 0
29 -133 -138 0
29 -133 134 0
29 133 -134 138 0
29 -134 -141 0
29 -134 140 0
29 134 -140 141 0
29 -135 -136 0
29 -135 137 0
29 135 -137 136 0
29 -137 -138 0
29 -137 139 0
29 137 -139 138 0
29 -139 -140 0
29 -139 141 0
29 139 -141 140 0
